p tw 40 98
0 1
0 8
0 12
0 39
0 35
1 9
1 33
1 19
2 3
2 34
2 5
2 38
2 37
3 20
3 31
3 30
3 6
4 5
4 25
5 29
5 31
5 37
5 36
6 7
6 18
6 21
6 26
6 20
6 10
6 12
6 29
6 25
7 31
7 34
7 13
8 9
8 33
8 23
9 19
9 17
9 32
9 24
9 28
10 11
10 12
11 37
11 32
11 39
12 13
13 36
13 22
13 29
13 28
13 32
14 15
14 21
15 20
15 37
15 28
16 17
16 22
16 25
16 20
17 34
17 28
17 24
18 32
18 25
19 20
19 26
20 24
21 36
22 23
22 30
22 29
22 36
22 35
23 29
23 32
23 33
23 28
25 28
25 27
26 27
26 29
26 37
26 35
27 33
27 30
28 31
29 30
30 32
31 33
31 34
33 35
33 37
33 34
34 38
